<?xml version = "1.0" encoding="UTF-8" standalone="yes"?>
<CPLEXSolution version="1.2">
 <header
   problemName="mknap2_cut_n2"
   objectiveValue="2461.0000000000036"
   solutionTypeValue="1"
   solutionTypeString="basic"
   solutionStatusValue="1"
   solutionStatusString="optimal"
   solutionMethodString="dual"
   primalFeasible="1"
   dualFeasible="1"
   simplexIterations="2"
   writeLevel="1"/>
 <quality
   epRHS="9.9999999999999995e-07"
   epOpt="9.9999999999999995e-07"
   maxPrimalInfeas="0"
   maxDualInfeas="0"
   maxPrimalResidual="2.6645352591003757e-14"
   maxDualResidual="3.907985046680551e-14"
   maxX="1"
   maxPi="630.99999999999966"
   maxSlack="266.66666666666674"
   maxRedCost="1300"
   kappa="3.5389531550525106"/>
 <linearConstraints>
  <constraint name="c0" index="0" status="BS" slack="222.66666666666663" dual="-0"/>
  <constraint name="c1" index="1" status="BS" slack="266.66666666666674" dual="-0"/>
  <constraint name="c2" index="2" status="BS" slack="61.366666666666667" dual="-0"/>
  <constraint name="c3" index="3" status="BS" slack="121.36666666666653" dual="-0"/>
  <constraint name="c4" index="4" status="BS" slack="138.69999999999987" dual="-0"/>
  <constraint name="c5" index="5" status="BS" slack="158.69999999999987" dual="-0"/>
  <constraint name="c6" index="6" status="BS" slack="20.466666666666598" dual="-0"/>
  <constraint name="c7" index="7" status="BS" slack="56.733333333333221" dual="-0"/>
  <constraint name="c8" index="8" status="BS" slack="70.333333333333258" dual="-0"/>
  <constraint name="c9" index="9" status="BS" slack="70.333333333333258" dual="-0"/>
  <constraint name="cut_1" index="10" status="LL" slack="0" dual="630.99999999999966"/>
  <constraint name="cut_2" index="11" status="LL" slack="0" dual="437.50000000000125"/>
 </linearConstraints>
 <variables>
  <variable name="x0" index="0" status="LL" value="0" reducedCost="-422.50000000000131"/>
  <variable name="x1" index="1" status="LL" value="0" reducedCost="-173.00000000000108"/>
  <variable name="x2" index="2" status="LL" value="0" reducedCost="-364.625"/>
  <variable name="x3" index="3" status="UL" value="1" reducedCost="24.000000000007816"/>
  <variable name="x4" index="4" status="UL" value="1" reducedCost="300"/>
  <variable name="x5" index="5" status="LL" value="0" reducedCost="-135.25000000000369"/>
  <variable name="x6" index="6" status="LL" value="0" reducedCost="-629.87500000000102"/>
  <variable name="x7" index="7" status="LL" value="0" reducedCost="-574.62500000000125"/>
  <variable name="x8" index="8" status="LL" value="0" reducedCost="-377.50000000000023"/>
  <variable name="x9" index="9" status="BS" value="0.53333333333333011" reducedCost="0"/>
  <variable name="x10" index="10" status="LL" value="0" reducedCost="-262.75000000000136"/>
  <variable name="x11" index="11" status="LL" value="0" reducedCost="-134.00000000000031"/>
  <variable name="x12" index="12" status="LL" value="0" reducedCost="-259.00000000000057"/>
  <variable name="x13" index="13" status="UL" value="1" reducedCost="1300"/>
  <variable name="x14" index="14" status="BS" value="0.23333333333334205" reducedCost="0"/>
 </variables>
 <objectiveValues>
  <objective index="0" name="" value="2461.0000000000036"/>
 </objectiveValues>
</CPLEXSolution>
